WARNING: for repeatability, setting FPU to use double precision
============================[ Problem Statistics ]=============================
|                                                                             |
|  Number of variables:          8232                                         |
|  Number of clauses:           41266                                         |
|  Parse time:                   0.01 s                                       |
|                                                                             |
============================[ Search Statistics ]==============================
| Conflicts |          ORIGINAL         |          LEARNT          | Progress |
|           |    Vars  Clauses Literals |    Limit  Clauses Lit/Cl |          |
===============================================================================
|       100 |    8232    41266   157591 |    15130      100      6 |  0.000 % |
|       250 |    8232    41266   157591 |    16643      250      8 |  0.000 % |
|       475 |    8232    41266   157591 |    18308      475     14 |  0.000 % |
|       812 |    8232    41266   157591 |    20139      812     15 |  0.000 % |
|      1318 |    8232    41266   157591 |    22153     1318     18 |  0.000 % |
|      2077 |    8232    41266   157591 |    24368     2077     19 |  0.000 % |
|      3216 |    8232    41266   157591 |    26805     3216     20 |  0.000 % |
|      4924 |    8232    41266   157591 |    29485     4924     21 |  0.000 % |
|      7486 |    8232    41266   157591 |    32434     7486     22 |  0.000 % |
|     11330 |    8232    41266   157591 |    35677    11330     22 |  0.000 % |
|     17096 |    8232    41266   157591 |    39245    17096     24 |  0.000 % |
|     25745 |    8232    41266   157591 |    43170    25745     24 |  0.000 % |
|     38719 |    8232    41266   157591 |    47487    38719     24 |  0.000 % |
|     58180 |    8232    41266   157591 |    52235    24182     25 |  0.000 % |
|     87372 |    8232    41266   157591 |    57459    15162     25 |  0.000 % |
|    131161 |    8232    41266   157591 |    63205    16699     22 |  0.000 % |
|    196845 |    8232    41266   157591 |    69525    35607     27 |  0.000 % |
|    295371 |    8232    41266   157591 |    76478    26654     23 |  0.000 % |
|    443160 |    8232    41266   157591 |    84126    55770     29 |  0.000 % |
|    664843 |    8232    41266   157591 |    92539    72348     28 |  0.000 % |
|    997368 |    8232    41266   157591 |   101792    26108     38 |  0.000 % |
|   1496156 |    8232    41266   157591 |   111972    98816     27 |  0.000 % |
|   2244338 |    8232    41266   157591 |   123169    87375     59 |  0.000 % |
|   3366612 |    8232    41266   157591 |   135486    52024     24 |  0.000 % |
|   5050023 |    8232    41266   157591 |   149034    86510     46 |  0.000 % |
|   7575139 |    8232    41266   157591 |   163938   126972     48 |  0.000 % |
|  11362814 |    8232    41266   157591 |   180332    26793     49 |  0.000 % |
|  17044326 |    8232    41266   157591 |   198365    62258     33 |  0.000 % |
===============================================================================
restarts              : 32767
conflicts             : 23252176       (12773 /sec)
decisions             : 43942409       (0.00 % random) (24139 /sec)
propagations          : 6200349447     (3406014 /sec)
conflict literals     : 864632405      (22.10 % deleted)
Memory used           : 170.00 MB
CPU time              : 1820.41 s

SATISFIABLE
